2269275
40,5,2,29,24,28,31,55,39,59,48,18,22,0,19,3,49,27,35,7,67,34,61,38,50,52,36,58,15,8,57,26,16,14,1,44,47,64,53,46,12,60,23,62,20,4,41,11,54,33,45,25,65,10,66,37,63,6,30,43,56,17,9,13,51,21,32,42,40
